p edge 60 1221
e 4 2 462
e 5 4 347
e 6 1 313
e 6 5 420
e 7 1 233
e 7 2 446
e 7 3 247
e 7 4 445
e 7 5 319
e 7 6 452
e 8 3 255
e 8 4 401
e 8 5 354
e 8 7 374
e 9 1 408
e 9 2 288
e 9 3 434
e 9 5 274
e 9 6 246
e 9 7 210
e 9 8 379
e 10 1 395
e 10 2 342
e 10 5 219
e 10 7 206
e 10 8 213
e 11 2 267
e 11 3 232
e 11 5 402
e 11 6 246
e 11 7 276
e 11 8 459
e 11 9 246
e 12 2 370
e 12 3 444
e 12 4 420
e 12 5 373
e 12 6 430
e 12 7 374
e 12 8 478
e 12 9 426
e 12 10 239
e 13 1 447
e 13 3 444
e 13 4 422
e 13 5 471
e 13 6 393
e 13 7 419
e 13 8 256
e 13 9 469
e 13 10 206
e 14 2 275
e 14 3 410
e 14 6 355
e 14 7 223
e 14 8 476
e 14 9 215
e 14 10 414
e 14 12 373
e 14 13 356
e 15 1 459
e 15 2 277
e 15 3 398
e 15 4 422
e 15 6 354
e 15 7 205
e 15 8 217
e 15 9 473
e 15 10 232
e 15 11 359
e 15 14 427
e 16 1 206
e 16 4 262
e 16 5 257
e 16 6 306
e 16 7 342
e 16 8 240
e 16 9 379
e 16 10 436
e 16 12 437
e 16 13 350
e 16 14 472
e 17 3 399
e 17 4 218
e 17 6 370
e 17 7 280
e 17 8 395
e 17 9 379
e 17 10 467
e 17 11 200
e 17 14 357
e 17 16 414
e 18 2 426
e 18 4 477
e 18 5 209
e 18 6 403
e 18 7 339
e 18 9 290
e 18 10 228
e 18 11 393
e 18 12 333
e 18 13 443
e 18 14 274
e 18 15 414
e 18 16 224
e 19 1 243
e 19 2 219
e 19 3 344
e 19 4 287
e 19 7 286
e 19 10 456
e 19 11 368
e 19 12 277
e 19 13 294
e 19 17 320
e 19 18 380
e 20 3 281
e 20 4 253
e 20 5 323
e 20 6 471
e 20 7 358
e 20 8 260
e 20 9 388
e 20 11 295
e 20 12 472
e 20 14 368
e 20 15 414
e 20 17 293
e 20 18 243
e 20 19 304
e 21 1 287
e 21 2 470
e 21 3 320
e 21 6 428
e 21 7 216
e 21 8 464
e 21 11 414
e 21 12 443
e 21 13 273
e 21 15 443
e 21 16 349
e 21 18 346
e 21 19 403
e 21 20 218
e 22 1 281
e 22 2 308
e 22 3 309
e 22 4 364
e 22 8 359
e 22 9 306
e 22 12 312
e 22 13 439
e 22 14 248
e 22 17 467
e 22 18 400
e 22 19 327
e 22 20 382
e 22 21 460
e 23 2 411
e 23 5 201
e 23 6 313
e 23 7 422
e 23 8 398
e 23 9 200
e 23 13 448
e 23 14 382
e 23 15 233
e 23 16 222
e 23 17 317
e 23 18 476
e 23 19 447
e 23 21 429
e 24 1 440
e 24 3 321
e 24 5 371
e 24 8 448
e 24 9 361
e 24 10 328
e 24 12 391
e 24 13 407
e 24 15 471
e 24 17 446
e 24 20 432
e 24 22 266
e 24 23 318
e 25 1 318
e 25 2 308
e 25 3 380
e 25 4 352
e 25 6 388
e 25 7 373
e 25 8 254
e 25 12 467
e 25 14 298
e 25 16 382
e 25 19 442
e 25 20 262
e 25 23 287
e 26 1 409
e 26 2 254
e 26 4 206
e 26 5 432
e 26 6 338
e 26 8 345
e 26 10 400
e 26 13 331
e 26 14 456
e 26 15 304
e 26 16 479
e 26 17 465
e 26 18 420
e 26 19 280
e 26 20 272
e 26 21 214
e 26 23 352
e 27 3 224
e 27 4 387
e 27 6 293
e 27 8 218
e 27 9 388
e 27 10 301
e 27 11 382
e 27 13 423
e 27 14 251
e 27 16 454
e 27 18 440
e 27 22 234
e 27 23 294
e 27 24 473
e 27 25 379
e 27 26 237
e 28 1 256
e 28 2 398
e 28 3 221
e 28 6 212
e 28 7 292
e 28 8 236
e 28 9 234
e 28 10 372
e 28 12 263
e 28 14 348
e 28 15 417
e 28 16 244
e 28 17 242
e 28 18 419
e 28 22 238
e 28 26 336
e 29 2 279
e 29 3 313
e 29 4 202
e 29 7 416
e 29 9 334
e 29 10 290
e 29 12 440
e 29 16 278
e 29 17 460
e 29 18 300
e 29 19 411
e 29 20 379
e 29 21 233
e 29 22 311
e 29 23 208
e 29 24 433
e 29 25 231
e 29 26 262
e 29 28 279
e 30 1 281
e 30 3 265
e 30 4 205
e 30 6 354
e 30 7 203
e 30 8 441
e 30 9 449
e 30 10 471
e 30 12 244
e 30 14 230
e 30 15 255
e 30 16 420
e 30 17 315
e 30 18 256
e 30 19 459
e 30 21 405
e 30 22 204
e 30 23 440
e 30 25 251
e 30 26 336
e 31 1 341
e 31 3 241
e 31 5 396
e 31 6 244
e 31 7 271
e 31 9 320
e 31 11 435
e 31 12 321
e 31 13 433
e 31 15 480
e 31 16 352
e 31 17 288
e 31 18 322
e 31 23 412
e 31 24 362
e 31 25 397
e 31 26 285
e 31 27 421
e 31 28 316
e 31 29 377
e 31 30 255
e 32 2 251
e 32 5 345
e 32 6 436
e 32 7 257
e 32 8 449
e 32 9 286
e 32 11 465
e 32 13 392
e 32 14 262
e 32 15 400
e 32 16 324
e 32 19 380
e 32 20 336
e 32 21 293
e 32 22 311
e 32 25 317
e 32 26 422
e 32 29 214
e 32 30 428
e 32 31 335
e 33 1 437
e 33 2 327
e 33 3 383
e 33 4 428
e 33 5 418
e 33 6 292
e 33 7 397
e 33 8 297
e 33 13 234
e 33 14 279
e 33 16 352
e 33 18 294
e 33 20 315
e 33 21 211
e 33 22 462
e 33 26 317
e 33 29 399
e 33 30 319
e 33 31 269
e 33 32 391
e 34 1 327
e 34 4 309
e 34 5 419
e 34 7 372
e 34 10 361
e 34 11 321
e 34 12 289
e 34 13 458
e 34 14 368
e 34 17 469
e 34 18 359
e 34 19 307
e 34 20 269
e 34 21 306
e 34 22 243
e 34 25 462
e 34 27 350
e 34 28 221
e 34 29 253
e 34 30 454
e 34 31 374
e 34 33 281
e 35 1 276
e 35 3 451
e 35 4 349
e 35 6 359
e 35 7 351
e 35 8 449
e 35 9 381
e 35 10 364
e 35 11 438
e 35 14 227
e 35 15 395
e 35 17 214
e 35 18 297
e 35 20 270
e 35 22 408
e 35 23 338
e 35 26 292
e 35 28 272
e 35 30 382
e 35 32 257
e 36 1 356
e 36 3 423
e 36 4 252
e 36 5 232
e 36 6 413
e 36 7 302
e 36 8 348
e 36 10 232
e 36 11 300
e 36 13 214
e 36 16 246
e 36 17 319
e 36 18 294
e 36 19 452
e 36 21 311
e 36 22 479
e 36 24 365
e 36 25 362
e 36 28 207
e 36 29 421
e 36 30 335
e 36 32 227
e 36 35 409
e 37 2 244
e 37 3 267
e 37 6 320
e 37 7 262
e 37 10 305
e 37 11 462
e 37 14 459
e 37 16 310
e 37 17 241
e 37 18 468
e 37 19 424
e 37 20 253
e 37 22 249
e 37 24 407
e 37 25 471
e 37 26 244
e 37 27 418
e 37 28 459
e 37 30 200
e 37 31 209
e 37 35 425
e 37 36 438
e 38 1 349
e 38 2 211
e 38 3 205
e 38 5 288
e 38 6 331
e 38 7 460
e 38 8 387
e 38 10 447
e 38 12 453
e 38 13 216
e 38 16 334
e 38 17 314
e 38 18 260
e 38 19 303
e 38 20 333
e 38 22 260
e 38 26 209
e 38 27 455
e 38 29 292
e 38 30 419
e 38 31 272
e 38 32 312
e 38 33 379
e 38 36 334
e 38 37 222
e 39 1 302
e 39 2 228
e 39 3 424
e 39 5 373
e 39 6 423
e 39 7 261
e 39 9 215
e 39 10 362
e 39 12 351
e 39 13 303
e 39 16 202
e 39 18 464
e 39 20 231
e 39 21 365
e 39 23 220
e 39 24 307
e 39 25 277
e 39 26 204
e 39 27 465
e 39 28 398
e 39 29 214
e 39 30 307
e 39 31 453
e 39 33 390
e 39 34 387
e 39 36 339
e 39 38 428
e 40 1 275
e 40 3 245
e 40 4 379
e 40 5 401
e 40 6 252
e 40 7 418
e 40 10 200
e 40 11 313
e 40 13 290
e 40 14 430
e 40 15 443
e 40 16 221
e 40 18 480
e 40 19 295
e 40 20 290
e 40 21 238
e 40 23 212
e 40 24 384
e 40 25 417
e 40 26 383
e 40 27 474
e 40 30 298
e 40 33 335
e 40 34 331
e 40 35 477
e 40 37 232
e 40 38 461
e 40 39 306
e 41 4 328
e 41 5 369
e 41 6 418
e 41 7 392
e 41 9 341
e 41 10 427
e 41 11 367
e 41 12 470
e 41 13 338
e 41 14 281
e 41 15 424
e 41 16 477
e 41 17 314
e 41 20 360
e 41 21 277
e 41 23 226
e 41 24 434
e 41 25 240
e 41 26 476
e 41 27 276
e 41 28 219
e 41 29 442
e 41 31 432
e 41 32 428
e 41 33 365
e 41 34 229
e 41 35 380
e 41 36 480
e 41 37 363
e 41 39 326
e 41 40 457
e 42 1 386
e 42 2 311
e 42 4 210
e 42 6 298
e 42 7 339
e 42 9 250
e 42 10 323
e 42 11 272
e 42 12 424
e 42 13 319
e 42 14 454
e 42 15 290
e 42 16 251
e 42 17 281
e 42 18 415
e 42 19 468
e 42 22 308
e 42 23 294
e 42 24 410
e 42 25 306
e 42 27 418
e 42 28 335
e 42 29 258
e 42 30 429
e 42 31 218
e 42 33 235
e 42 35 391
e 42 37 250
e 42 38 340
e 42 39 237
e 42 40 441
e 43 2 305
e 43 3 344
e 43 5 344
e 43 6 260
e 43 7 476
e 43 8 226
e 43 9 270
e 43 11 313
e 43 12 469
e 43 13 398
e 43 14 380
e 43 17 224
e 43 19 337
e 43 20 206
e 43 21 471
e 43 22 280
e 43 23 392
e 43 25 340
e 43 26 388
e 43 27 258
e 43 28 453
e 43 29 429
e 43 31 399
e 43 32 228
e 43 33 286
e 43 35 240
e 43 36 465
e 43 37 209
e 43 38 275
e 43 39 269
e 44 1 226
e 44 2 249
e 44 3 229
e 44 4 371
e 44 5 205
e 44 8 464
e 44 11 339
e 44 12 267
e 44 13 222
e 44 14 301
e 44 18 334
e 44 19 402
e 44 20 342
e 44 22 302
e 44 24 274
e 44 25 257
e 44 26 445
e 44 27 281
e 44 28 224
e 44 29 423
e 44 30 469
e 44 31 476
e 44 32 376
e 44 33 257
e 44 34 409
e 44 35 418
e 44 36 423
e 44 37 426
e 44 38 313
e 44 41 374
e 44 43 300
e 45 1 355
e 45 3 441
e 45 5 300
e 45 6 390
e 45 7 440
e 45 8 464
e 45 11 387
e 45 13 241
e 45 14 442
e 45 15 439
e 45 16 222
e 45 17 284
e 45 18 293
e 45 19 428
e 45 20 424
e 45 21 359
e 45 22 235
e 45 23 381
e 45 25 319
e 45 26 436
e 45 29 262
e 45 30 270
e 45 31 318
e 45 32 356
e 45 33 320
e 45 34 323
e 45 35 452
e 45 37 247
e 45 38 364
e 45 39 299
e 45 40 310
e 45 41 292
e 45 42 456
e 46 4 247
e 46 5 304
e 46 6 261
e 46 9 246
e 46 13 468
e 46 15 291
e 46 18 444
e 46 19 395
e 46 20 240
e 46 21 390
e 46 22 442
e 46 23 220
e 46 25 352
e 46 26 386
e 46 27 278
e 46 29 354
e 46 30 314
e 46 32 442
e 46 33 310
e 46 34 213
e 46 36 435
e 46 38 226
e 46 40 319
e 46 41 272
e 46 42 305
e 46 43 328
e 46 44 258
e 46 45 355
e 47 1 346
e 47 3 354
e 47 4 377
e 47 5 478
e 47 6 478
e 47 9 403
e 47 10 341
e 47 11 467
e 47 12 414
e 47 13 259
e 47 14 355
e 47 15 373
e 47 16 344
e 47 17 333
e 47 18 275
e 47 19 377
e 47 21 432
e 47 22 288
e 47 24 459
e 47 26 263
e 47 27 416
e 47 28 318
e 47 29 289
e 47 31 459
e 47 33 347
e 47 34 426
e 47 35 204
e 47 38 278
e 47 39 351
e 47 40 327
e 47 42 272
e 47 43 296
e 47 44 475
e 47 45 272
e 47 46 413
e 48 1 240
e 48 2 329
e 48 4 359
e 48 5 306
e 48 6 282
e 48 7 455
e 48 8 331
e 48 9 480
e 48 10 227
e 48 11 375
e 48 12 391
e 48 13 215
e 48 14 237
e 48 15 404
e 48 17 354
e 48 19 364
e 48 20 295
e 48 21 271
e 48 23 200
e 48 24 328
e 48 25 446
e 48 26 279
e 48 27 394
e 48 28 415
e 48 30 201
e 48 31 380
e 48 32 288
e 48 35 358
e 48 37 324
e 48 38 213
e 48 39 354
e 48 40 211
e 48 42 219
e 48 43 401
e 48 44 418
e 48 45 357
e 48 47 317
e 49 1 207
e 49 2 333
e 49 3 238
e 49 4 423
e 49 5 452
e 49 6 303
e 49 8 247
e 49 10 297
e 49 11 281
e 49 13 395
e 49 16 463
e 49 17 432
e 49 18 392
e 49 19 416
e 49 20 399
e 49 22 209
e 49 23 251
e 49 24 420
e 49 25 399
e 49 26 376
e 49 29 283
e 49 30 406
e 49 31 451
e 49 32 411
e 49 34 246
e 49 36 428
e 49 37 447
e 49 38 249
e 49 43 379
e 49 44 441
e 49 45 452
e 49 47 244
e 49 48 425
e 50 1 376
e 50 2 279
e 50 3 457
e 50 6 273
e 50 7 382
e 50 8 432
e 50 9 372
e 50 11 370
e 50 12 419
e 50 13 310
e 50 14 291
e 50 16 342
e 50 19 450
e 50 20 320
e 50 21 469
e 50 23 447
e 50 24 386
e 50 26 420
e 50 28 331
e 50 29 310
e 50 30 389
e 50 32 437
e 50 33 363
e 50 34 395
e 50 35 203
e 50 37 463
e 50 38 421
e 50 39 407
e 50 43 297
e 50 44 202
e 50 45 468
e 50 46 321
e 50 47 453
e 50 48 463
e 50 49 355
e 51 2 285
e 51 3 390
e 51 4 343
e 51 5 349
e 51 6 374
e 51 8 425
e 51 10 203
e 51 11 211
e 51 12 263
e 51 13 204
e 51 14 265
e 51 15 283
e 51 16 207
e 51 17 289
e 51 18 339
e 51 19 330
e 51 20 213
e 51 21 270
e 51 23 284
e 51 24 393
e 51 27 264
e 51 30 217
e 51 34 361
e 51 36 215
e 51 37 251
e 51 38 371
e 51 39 224
e 51 40 474
e 51 41 277
e 51 43 245
e 51 44 314
e 51 45 453
e 51 47 255
e 51 48 317
e 51 49 283
e 52 1 232
e 52 2 428
e 52 3 441
e 52 5 371
e 52 7 479
e 52 8 429
e 52 11 414
e 52 12 311
e 52 14 394
e 52 17 402
e 52 18 214
e 52 21 337
e 52 22 217
e 52 23 317
e 52 25 380
e 52 28 244
e 52 29 301
e 52 30 431
e 52 31 328
e 52 33 297
e 52 35 323
e 52 36 394
e 52 37 292
e 52 39 403
e 52 40 280
e 52 41 391
e 52 42 224
e 52 44 274
e 52 45 251
e 52 46 460
e 52 48 360
e 52 50 292
e 52 51 340
e 53 1 218
e 53 2 370
e 53 4 343
e 53 5 208
e 53 6 394
e 53 7 387
e 53 8 351
e 53 9 352
e 53 10 232
e 53 11 232
e 53 12 369
e 53 13 426
e 53 14 388
e 53 15 391
e 53 16 213
e 53 18 355
e 53 19 236
e 53 20 337
e 53 21 417
e 53 23 313
e 53 24 295
e 53 25 410
e 53 29 284
e 53 30 470
e 53 31 464
e 53 33 242
e 53 35 354
e 53 36 215
e 53 37 411
e 53 38 436
e 53 40 352
e 53 41 363
e 53 42 243
e 53 43 412
e 53 45 295
e 53 46 204
e 53 48 406
e 53 49 271
e 53 51 402
e 53 52 396
e 54 2 361
e 54 5 461
e 54 8 280
e 54 10 258
e 54 13 435
e 54 14 297
e 54 15 274
e 54 16 233
e 54 17 251
e 54 19 272
e 54 20 233
e 54 21 360
e 54 22 299
e 54 24 396
e 54 25 278
e 54 26 459
e 54 29 207
e 54 31 345
e 54 34 277
e 54 35 367
e 54 36 391
e 54 37 403
e 54 38 210
e 54 39 332
e 54 41 349
e 54 42 453
e 54 43 446
e 54 44 360
e 54 46 287
e 54 48 456
e 54 49 312
e 54 51 448
e 54 53 233
e 55 1 266
e 55 3 440
e 55 4 302
e 55 5 347
e 55 6 423
e 55 7 368
e 55 8 388
e 55 9 385
e 55 10 204
e 55 11 437
e 55 13 409
e 55 14 429
e 55 15 317
e 55 18 330
e 55 19 436
e 55 20 421
e 55 21 448
e 55 23 300
e 55 24 309
e 55 26 248
e 55 27 468
e 55 28 281
e 55 29 206
e 55 30 299
e 55 31 478
e 55 32 465
e 55 33 302
e 55 34 447
e 55 35 339
e 55 36 480
e 55 37 304
e 55 38 281
e 55 39 217
e 55 42 221
e 55 43 333
e 55 44 373
e 55 45 309
e 55 47 241
e 55 48 281
e 55 50 283
e 55 54 257
e 56 1 215
e 56 2 255
e 56 3 393
e 56 7 370
e 56 8 376
e 56 9 330
e 56 10 246
e 56 11 233
e 56 12 239
e 56 15 403
e 56 17 279
e 56 18 296
e 56 19 446
e 56 20 252
e 56 21 386
e 56 22 302
e 56 24 446
e 56 25 348
e 56 28 212
e 56 29 243
e 56 30 375
e 56 32 249
e 56 33 381
e 56 34 436
e 56 35 417
e 56 36 388
e 56 38 296
e 56 39 470
e 56 41 239
e 56 42 232
e 56 43 388
e 56 46 255
e 56 49 223
e 56 50 389
e 56 51 282
e 56 52 306
e 56 54 222
e 56 55 372
e 57 1 337
e 57 4 224
e 57 6 284
e 57 7 453
e 57 9 438
e 57 10 424
e 57 11 340
e 57 12 395
e 57 14 289
e 57 16 278
e 57 18 266
e 57 19 355
e 57 21 339
e 57 22 215
e 57 23 384
e 57 24 385
e 57 29 314
e 57 30 248
e 57 31 468
e 57 32 214
e 57 33 281
e 57 34 314
e 57 35 243
e 57 36 393
e 57 37 324
e 57 38 314
e 57 39 337
e 57 40 219
e 57 41 434
e 57 42 292
e 57 43 376
e 57 44 219
e 57 45 368
e 57 47 202
e 57 48 363
e 57 49 395
e 57 52 385
e 57 53 298
e 57 54 300
e 57 56 393
e 58 1 464
e 58 2 232
e 58 4 476
e 58 5 312
e 58 6 348
e 58 9 269
e 58 10 401
e 58 12 397
e 58 14 424
e 58 15 248
e 58 16 254
e 58 18 417
e 58 19 286
e 58 20 214
e 58 21 356
e 58 22 250
e 58 24 220
e 58 25 239
e 58 27 441
e 58 29 473
e 58 31 203
e 58 32 329
e 58 34 200
e 58 36 314
e 58 38 473
e 58 39 282
e 58 40 359
e 58 41 475
e 58 42 267
e 58 43 203
e 58 45 450
e 58 46 299
e 58 47 340
e 58 49 280
e 58 50 356
e 58 51 425
e 58 52 331
e 58 54 288
e 58 55 469
e 59 1 286
e 59 2 390
e 59 3 364
e 59 4 330
e 59 5 204
e 59 6 444
e 59 8 206
e 59 10 223
e 59 11 244
e 59 12 241
e 59 13 249
e 59 16 238
e 59 17 261
e 59 19 289
e 59 20 343
e 59 21 316
e 59 22 371
e 59 23 387
e 59 25 212
e 59 27 231
e 59 28 349
e 59 29 412
e 59 30 364
e 59 31 468
e 59 34 290
e 59 35 248
e 59 38 359
e 59 40 347
e 59 41 388
e 59 42 286
e 59 43 358
e 59 44 368
e 59 46 301
e 59 47 202
e 59 49 283
e 59 51 461
e 59 52 437
e 59 56 205
e 59 58 341
e 60 1 456
e 60 2 453
e 60 3 354
e 60 6 337
e 60 7 390
e 60 9 453
e 60 11 304
e 60 12 231
e 60 13 476
e 60 14 281
e 60 15 310
e 60 16 367
e 60 17 330
e 60 18 254
e 60 19 442
e 60 21 467
e 60 22 316
e 60 23 395
e 60 24 305
e 60 25 439
e 60 26 468
e 60 27 254
e 60 28 447
e 60 29 252
e 60 30 434
e 60 32 407
e 60 33 325
e 60 34 467
e 60 35 375
e 60 36 287
e 60 38 242
e 60 39 413
e 60 42 465
e 60 43 217
e 60 45 211
e 60 46 439
e 60 47 257
e 60 48 280
e 60 49 375
e 60 51 407
e 60 52 215
e 60 54 341
e 60 55 350
e 60 57 343
e 60 59 459